51
Coordinates from ORCA-job C:\Users\User\Desktop\ORCA2\mod58\3\mod58_opt2 E -1605.299513046718
  S          -1.97664218706994      3.18110855548878     -0.86207067198288
  O          -1.53690821486685      3.59165438832234     -2.19179737257329
  O          -2.44967317931005      4.17879800195727      0.09175884553851
  C          -3.25871957274615      1.96346074289807     -1.05948891559266
  C          -0.62306925785523      2.27737693039138     -0.09554289721962
  C          -0.70751602904769      0.91376048078183      0.15577069894733
  C           0.54942450824495      2.97408563172459      0.23808063411016
  C           1.64425866067878      2.31796314955470      0.81557436204578
  C           0.37466963444069      0.25621621392219      0.73563918009156
  C           1.54792184902782      0.93099806240878      1.06755353259739
  C          -4.21884158299081      1.83149035235943     -0.05759297503579
  C          -3.28651024455125      1.18556578439239     -2.21685819216005
  C          -4.29292373166786      0.23282517461510     -2.35799614377626
  C          -5.25529093844183      0.07943010031129     -1.35774814984438
  C          -5.22331598737465      0.87883018570200     -0.21404067572241
  N           0.63945796945724      4.37857833746486      0.01072627921510
  C           0.38271552384371      5.33181089812072      0.98480732799124
  C           1.19217661887505      4.96094228433537     -1.11861625343184
  C           1.28792494245840      6.37415777786385     -0.86755125177755
  C           0.78123396707497      6.60587365386973      0.45374379212563
  H           2.70130016827458      7.20036465014377     -3.85677851433608
  C          -0.13360822982482      5.15030219889863      2.26001445489265
  C          -0.27346787497712      6.30384060778421      3.07163465140738
  C           0.63070666748921      7.73609946611206      1.27599990432567
  C           0.10357453884415      7.55956886178310      2.57577163027805
  C           1.83945532152742      7.18435508210565     -1.87478764856711
  C           2.27389433922786      6.57036056289345     -3.07172264255845
  C           1.62398045414580      4.35049707629545     -2.28869283599066
  C           2.17708588812471      5.18820725436515     -3.28857422633337
  H          -2.52854288762265      1.32972234531273     -2.98992842250403
  H          -4.32919295822180     -0.38940068293475     -3.25506440190706
  H          -6.04341745695354     -0.66866846426241     -1.47384734314955
  H          -5.98589500765206      0.76319967366040      0.55940981920554
  H          -4.17493250127612      2.47308909899991      0.82497342925643
  H          -1.61016919240163      0.35449285191699     -0.09315038138904
  H           0.30000290814915     -0.81600366536143      0.93358836970141
  H           2.51989376707619      4.75726052565580     -4.23076210732948
  H           1.51402878403792      3.27449594356564     -2.43578356073420
  H           0.92058046097550      8.72936548178493      0.92725061791500
  H          -0.01355483569863      8.43834236943632      3.21596683420458
  H          -0.68084988884487      6.21235255045493      4.07992324998765
  H          -0.43579860008836      4.16134375050206      2.61036802767023
  H           1.93995142985041      8.26293626855490     -1.73849773091768
  H           2.86552130432385      4.11822476211610      0.89280001329283
  C           2.90483808165012      3.05843408578236      1.16931245251676
  H           3.09653827165862      2.99833483306204      2.25168703685704
  H           3.76960442880246      2.60804924902543      0.65913624013568
  C           2.69871980799892      0.19097674391219      1.69131824973910
  H           2.45717833299851     -0.87106331773712      1.82931581290595
  H           3.60165841328872      0.25835615806626      1.06457136143504
  H           2.95799785503819      0.61442190722040      2.67420534414378
