46
Coordinates from ORCA-job C:\Users\User\Desktop\ORCA\mod52\3\mod52_opt2 E -1601.901332223680
  S          -2.84641999883556      3.57890516199406      0.78483802353963
  O          -2.65739869856495      5.00639396366679      0.46352890967495
  O          -4.12194467876200      3.14574438800382      1.36587097454375
  C          -2.71390167671042      2.74851578220333     -0.80944715829690
  C          -1.57403335257711      3.03321116815341      1.80487666319999
  C          -1.82440553233570      1.93500514441576      2.69227435133951
  C          -0.17511815449077      3.34526362105324      1.55802675250259
  C           0.85254119781441      2.64085541821476      2.21367398978056
  C          -0.81078037114406      1.26175478991903      3.31709696432120
  C           0.56422967275519      1.61332702090297      3.08137362373551
  C          -2.62497006719551      1.35473082804477     -0.85145181018910
  C          -2.67295437337473      3.50294418597946     -1.98142546162410
  C          -2.53301421813680      2.85510350748259     -3.20841070066090
  C          -2.43342280753839      1.46514020077761     -3.25959137294777
  C          -2.48204920625153      0.71593903906701     -2.08027424103332
  N           0.13311353949076      4.42468722062861      0.69446042830760
  C          -0.01644811464239      5.73053265476143      1.13463814025614
  C           0.43276602102074      4.19262025438683     -0.64234290515719
  C           0.48409309140286      5.28342393232354     -1.53430913742995
  C           0.04771580307946      6.78562003705285      0.20180396834618
  O           0.27201085334337      6.54568558141978     -1.10835140984406
  C          -0.27409507003585      6.02390797911416      2.48662671530301
  C          -0.44752889111252      7.33699305495931      2.88179989518781
  C          -0.13128862927484      8.10596780656422      0.60278497003885
  C          -0.37937228783218      8.37666078375145      1.94123077902909
  C           0.73744410214704      5.08553189988649     -2.89020100510772
  C           0.95212945863823      3.79790797111954     -3.35857486094018
  C           0.65219739081460      2.89273133337632     -1.13829551376530
  C           0.91325783110788      2.70261338911642     -2.48202018804523
  H          -2.74509555281006      4.59050033126718     -1.91654105997011
  H          -2.49858673072263      3.44265417111259     -4.12946288054821
  H          -2.31681982555918      0.96027081764032     -4.22198986597439
  H          -2.40768211272900     -0.37378139271600     -2.11910717961917
  H          -2.65117167948510      0.77360221514312      0.07456149362486
  H          -2.86693142963712      1.65999406925216      2.86951966265688
  H          -1.05090378835188      0.44981080728090      4.00739922348642
  H           1.36925502365357      1.07109716031312      3.58008005523340
  H           1.88794881726539      2.93414407363692      2.01673166526067
  H          -0.07832197301397      8.89463941278437     -0.14916529167852
  H          -0.52429750554919      9.41043595916835      2.26167087661081
  H          -0.64796122906396      7.56262316216196      3.93038892193348
  H          -0.33819133024254      5.20174321794177      3.19840339324518
  H           0.75471542727419      5.95369546172116     -3.55073839713986
  H           1.14733919525863      3.63863035299091     -4.42101184239780
  H           1.07496813588388      1.69249754518946     -2.86176016478254
  H           0.59819393662985      2.05131008927149     -0.44837840500568
